sat
(
  (define-fun G () String
    "aaabab")
  (define-fun I () String
    "")
  (define-fun E () String
    "")
  (define-fun H () String
    "")
  (define-fun K () String
    "aaababaaababaabbaa")
)
